sing20190414.12
TTAA 64121 48698
99007 28835 01503 00085 27633 10007 92772 23438 09511
85508 20657 09007 70161 11650 24504 50589 04750 09015
40762 14533 09018 30974 29360 07024 25101 39162 08021
20250 51544 12015 15430 67934 14009 10665 80358 08541
88999
77999=
TTCC 64127 48698
70865 72969 03512
88801 84756 07020
77999=
TTDD 6412/ 48698
11801 84756 22717 78765 33704 73368 44501 72170
21212 11938 12030 22887 12022 33855 10517 44779 05019
55737 05035 66700 03011 77675 30004 88656 24010 99624
25525 11597 26022 22575 24515 33561 20511 44553 20512
55528 26015 66517 26015 77510 29011 88501 30011=
